SAT
-75 121 -15 -79 31 -12 -52 22 -37 13 -125 -100 -26 53 55 -68 34 -42 -57 -54 89 115 110 98 71 39 -109 102 -62 44 103 23 78 3 -19 -70 64 120 51 -58 95 5 119 -14 2 73 -113 46 76 7 25 28 -9 6 -33 -85 -10 -80 -59 18 77 124 -104 -118 36 1 91 -88 -69 -92 74 41 66 56 -49 -38 -106 -112 -123 -87 27 -24 -43 -45 114 -63 -108 101 8 72 90 -107 105 16 65 -11 20 82 86 48 -32 -61 -40 -21 -4 -94 83 111 30 17 117 -50 -67 -93 -97 -60 84 99 47 81 116 122 29 -35 96 0
